% 
% Converted by convert_jobshop2.pl
% 
% original file (orb09) from Google or-tools SVN repository
%   or-tools-read-only/data/jobshop/orb09
%
%
% This data file is to be used with either of these two MiniZinc models:
%    http://www.hakank.org/minizinc/jobshop.mzn
%    http://www.hakank.org/minizinc/jobshop2.mzn
%


 
% +++++++++++++++++++++++++++++
% instance orb09
% +++++++++++++++++++++++++++++
% deadly 10x10 instance from Bruce Shepherd (BRS2)

num_machines = 10;
num_jobs = 10;
max_time = 99999; 

%
% The times for each job.
%
job_times = array2d(1..num_machines, 1..num_jobs,
[
36,96,86,7,20,9,39,79,82,24,
16,95,67,63,87,24,62,49,92,16,
65,71,9,67,70,48,49,66,5,96,
50,31,6,13,98,97,93,30,34,83,
99,7,55,78,68,81,90,75,66,40,
42,11,5,39,10,30,39,50,20,51,
38,68,86,77,32,89,37,53,43,89,
19,11,37,41,72,7,52,31,68,10,
83,21,23,87,58,89,74,29,74,23,
44,57,69,50,65,69,60,58,89,13,
]);


%
% The order each job must be done.
%
job_order = array2d(1..num_machines, 1..num_jobs,
[
0,1,2,3,4,5,6,7,8,9,
0,8,3,5,2,1,9,6,7,4,
0,6,1,3,8,2,5,4,7,9,
0,1,4,8,5,7,6,9,3,2,
0,5,9,8,7,4,3,2,1,6,
1,5,0,9,2,8,3,6,7,4,
0,3,8,7,9,2,4,6,1,5,
0,9,4,1,5,7,2,6,3,8,
0,1,9,7,8,6,4,5,2,3,
0,2,4,9,1,5,8,3,6,7,
]);
